     Program PWSCF v.6.4.1 starts on 13Aug2024 at 13:41:12

     Waiting for input...
     Reading input from standard input

     Current dimensions of program PWSCF are:
     Max number of different atomic species (ntypx) = 10
     Max number of k-points (npk) =  40000
     Max angular momentum in pseudopotentials (lmaxx) =  3

     IMPORTANT: XC functional enforced from input :
     Exchange-correlation      = PBE ( 1  4  3  4 0 0)
     Any further DFT definition will be discarded
     Please, verify this is what you really want

     Subspace diagonalization in iterative solution of the eigenvalue problem:
     a serial algorithm will be used

     bravais-lattice index     =            8
     lattice parameter (alat)  =       6.6101  a.u.
     unit-cell volume          =    2308.8680 (a.u.)^3
     number of atoms/cell      =            6
     number of atomic types    =            2
     number of electrons       =        92.00
     number of Kohn-Sham states=           55
     kinetic-energy cutoff     =      66.0000  Ry
     charge density cutoff     =     500.0000  Ry
     convergence threshold     =      1.0E-09
     mixing beta               =       0.7000
     number of iterations used =            8  plain     mixing
     Exchange-correlation      = PBE ( 1  4  3  4 0 0)

     celldm(1)=   6.610149  celldm(2)=   1.812001  celldm(3)=   4.411711
     celldm(4)=   0.000000  celldm(5)=   0.000000  celldm(6)=   0.000000

     crystal axes: (cart. coord. in units of alat)
               a(1) = (   1.000000   0.000000   0.000000 )
               a(2) = (   0.000000   1.812001   0.000000 )
               a(3) = (   0.000000   0.000000   4.411711 )

     reciprocal axes: (cart. coord. in units 2 pi/alat)
               b(1) = (  1.000000  0.000000  0.000000 )
               b(2) = (  0.000000  0.551876  0.000000 )
               b(3) = (  0.000000  0.000000  0.226669 )

     PseudoPot. # 1 for Te read from file:
     .\Te_ONCV_PBE_sr.upf
     MD5 check sum: e924e79875967e0d58ac6509efbf72c7
     Pseudo is Norm-conserving + core correction, Zval = 16.0
     Generated using ONCVPSP code by D. R. Hamann
     Using radial grid of 1294 points,  6 beta functions with:
                l(1) =   0
                l(2) =   0
                l(3) =   1
                l(4) =   1
                l(5) =   2
                l(6) =   2

     PseudoPot. # 2 for W  read from file:
     .\W_ONCV_PBE_sr.upf
     MD5 check sum: ed1f8c5deb4c334b28f6f49839c97859
     Pseudo is Norm-conserving + core correction, Zval = 14.0
     Generated using ONCVPSP code by D. R. Hamann
     Using radial grid of 1396 points,  7 beta functions with:
                l(1) =   0
                l(2) =   0
                l(3) =   1
                l(4) =   1
                l(5) =   2
                l(6) =   2
                l(7) =   3

     atomic species   valence    mass     pseudopotential
        Te            16.00   127.60000     Te( 1.00)
        W             14.00   183.84000     W ( 1.00)

     No symmetry found

                                    s                        frac. trans.

      isym =  1     identity

 cryst.   s( 1) = (     1          0          0      )
                  (     0          1          0      )
                  (     0          0          1      )

 cart.    s( 1) = (  1.0000000  0.0000000  0.0000000 )
                  (  0.0000000  1.0000000  0.0000000 )
                  (  0.0000000  0.0000000  1.0000000 )

     point group C_1 (1)
     there are  1 classes
     the character table:

       E
A      1.00

     the symmetry operations in each class and the name of the first element:

     E        1
          identity

   Cartesian axes

     site n.     atom                  positions (alat units)
         1           Te  tau(   1) = (   0.0000001   0.3758597   1.8171391  )
         2           Te  tau(   2) = (   0.5000002   1.2674192   1.6396615  )
         3           Te  tau(   3) = (  -0.0000000   1.5573761   2.8386118  )
         4           Te  tau(   4) = (   0.5000003   0.6370455   2.6609266  )
         5           W   tau(   5) = (   0.5000001   1.7346064   2.2680210  )
         6           W   tau(   6) = (   0.0000001   1.0904003   2.2105366  )

   Crystallographic axes

     site n.     atom                  positions (cryst. coord.)
         1           Te  tau(   1) = (  0.0000001  0.2074280  0.4118899  )
         2           Te  tau(   2) = (  0.5000002  0.6994584  0.3716611  )
         3           Te  tau(   3) = ( -0.0000000  0.8594787  0.6434265  )
         4           Te  tau(   4) = (  0.5000003  0.3515702  0.6031507  )
         5           W   tau(   5) = (  0.5000001  0.9572879  0.5140910  )
         6           W   tau(   6) = (  0.0000001  0.6017659  0.5010611  )

     number of k points=    34  gaussian smearing, width (Ry)=  0.0100
                       cart. coord. in units 2pi/alat
        k(    1) = (   0.0000000   0.0000000   0.0000000), wk =   0.0312500
        k(    2) = (   0.0000000   0.0689845   0.0000000), wk =   0.0625000
        k(    3) = (   0.0000000   0.1379690   0.0000000), wk =   0.0625000
        k(    4) = (   0.0000000   0.2069536   0.0000000), wk =   0.0625000
        k(    5) = (   0.0000000  -0.2759381   0.0000000), wk =   0.0312500
        k(    6) = (   0.1250000   0.0000000   0.0000000), wk =   0.0625000
        k(    7) = (   0.1250000   0.0689845   0.0000000), wk =   0.0625000
        k(    8) = (   0.1250000   0.1379690   0.0000000), wk =   0.0625000
        k(    9) = (   0.1250000   0.2069536   0.0000000), wk =   0.0625000
        k(   10) = (   0.1250000  -0.2759381   0.0000000), wk =   0.0625000
        k(   11) = (   0.1250000  -0.2069536   0.0000000), wk =   0.0625000
        k(   12) = (   0.1250000  -0.1379690   0.0000000), wk =   0.0625000
        k(   13) = (   0.1250000  -0.0689845   0.0000000), wk =   0.0625000
        k(   14) = (   0.2500000   0.0000000   0.0000000), wk =   0.0625000
        k(   15) = (   0.2500000   0.0689845   0.0000000), wk =   0.0625000
        k(   16) = (   0.2500000   0.1379690   0.0000000), wk =   0.0625000
        k(   17) = (   0.2500000   0.2069536   0.0000000), wk =   0.0625000
        k(   18) = (   0.2500000  -0.2759381   0.0000000), wk =   0.0625000
        k(   19) = (   0.2500000  -0.2069536   0.0000000), wk =   0.0625000
        k(   20) = (   0.2500000  -0.1379690   0.0000000), wk =   0.0625000
        k(   21) = (   0.2500000  -0.0689845   0.0000000), wk =   0.0625000
        k(   22) = (   0.3750000   0.0000000   0.0000000), wk =   0.0625000
        k(   23) = (   0.3750000   0.0689845   0.0000000), wk =   0.0625000
        k(   24) = (   0.3750000   0.1379690   0.0000000), wk =   0.0625000
        k(   25) = (   0.3750000   0.2069536   0.0000000), wk =   0.0625000
        k(   26) = (   0.3750000  -0.2759381   0.0000000), wk =   0.0625000
        k(   27) = (   0.3750000  -0.2069536   0.0000000), wk =   0.0625000
        k(   28) = (   0.3750000  -0.1379690   0.0000000), wk =   0.0625000
        k(   29) = (   0.3750000  -0.0689845   0.0000000), wk =   0.0625000
        k(   30) = (  -0.5000000   0.0000000   0.0000000), wk =   0.0312500
        k(   31) = (  -0.5000000   0.0689845   0.0000000), wk =   0.0625000
        k(   32) = (  -0.5000000   0.1379690   0.0000000), wk =   0.0625000
        k(   33) = (  -0.5000000   0.2069536   0.0000000), wk =   0.0625000
        k(   34) = (  -0.5000000  -0.2759381   0.0000000), wk =   0.0312500

                       cryst. coord.
        k(    1) = (   0.0000000   0.0000000   0.0000000), wk =   0.0312500
        k(    2) = (   0.0000000   0.1250000   0.0000000), wk =   0.0625000
        k(    3) = (   0.0000000   0.2500000   0.0000000), wk =   0.0625000
        k(    4) = (   0.0000000   0.3750000   0.0000000), wk =   0.0625000
        k(    5) = (   0.0000000  -0.5000000   0.0000000), wk =   0.0312500
        k(    6) = (   0.1250000   0.0000000   0.0000000), wk =   0.0625000
        k(    7) = (   0.1250000   0.1250000   0.0000000), wk =   0.0625000
        k(    8) = (   0.1250000   0.2500000   0.0000000), wk =   0.0625000
        k(    9) = (   0.1250000   0.3750000   0.0000000), wk =   0.0625000
        k(   10) = (   0.1250000  -0.5000000   0.0000000), wk =   0.0625000
        k(   11) = (   0.1250000  -0.3750000   0.0000000), wk =   0.0625000
        k(   12) = (   0.1250000  -0.2500000   0.0000000), wk =   0.0625000
        k(   13) = (   0.1250000  -0.1250000   0.0000000), wk =   0.0625000
        k(   14) = (   0.2500000   0.0000000   0.0000000), wk =   0.0625000
        k(   15) = (   0.2500000   0.1250000   0.0000000), wk =   0.0625000
        k(   16) = (   0.2500000   0.2500000   0.0000000), wk =   0.0625000
        k(   17) = (   0.2500000   0.3750000   0.0000000), wk =   0.0625000
        k(   18) = (   0.2500000  -0.5000000   0.0000000), wk =   0.0625000
        k(   19) = (   0.2500000  -0.3750000   0.0000000), wk =   0.0625000
        k(   20) = (   0.2500000  -0.2500000   0.0000000), wk =   0.0625000
        k(   21) = (   0.2500000  -0.1250000   0.0000000), wk =   0.0625000
        k(   22) = (   0.3750000   0.0000000   0.0000000), wk =   0.0625000
        k(   23) = (   0.3750000   0.1250000   0.0000000), wk =   0.0625000
        k(   24) = (   0.3750000   0.2500000   0.0000000), wk =   0.0625000
        k(   25) = (   0.3750000   0.3750000   0.0000000), wk =   0.0625000
        k(   26) = (   0.3750000  -0.5000000   0.0000000), wk =   0.0625000
        k(   27) = (   0.3750000  -0.3750000   0.0000000), wk =   0.0625000
        k(   28) = (   0.3750000  -0.2500000   0.0000000), wk =   0.0625000
        k(   29) = (   0.3750000  -0.1250000   0.0000000), wk =   0.0625000
        k(   30) = (  -0.5000000   0.0000000   0.0000000), wk =   0.0312500
        k(   31) = (  -0.5000000   0.1250000   0.0000000), wk =   0.0625000
        k(   32) = (  -0.5000000   0.2500000   0.0000000), wk =   0.0625000
        k(   33) = (  -0.5000000   0.3750000   0.0000000), wk =   0.0625000
        k(   34) = (  -0.5000000  -0.5000000   0.0000000), wk =   0.0312500

     Initial potential from superposition of free atoms

     starting charge   91.99815, renormalised to   92.00000

     negative rho (up, down):  2.091E-06 0.000E+00
     Starting wfcs are   56 randomized atomic wfcs

     Self-consistent Calculation

     iteration #  1     ecut=    66.00 Ry     beta= 0.70
     Davidson diagonalization with overlap
     ethr =  1.00E-02,  avg # of iterations =  3.1

     Threshold (ethr) on eigenvalues was too large:
     Diagonalizing with lowered threshold

     Davidson diagonalization with overlap
     ethr =  5.08E-04,  avg # of iterations =  1.1

     total energy              =   -1147.67481293 Ry
     Harris-Foulkes estimate   =   -1148.04000999 Ry
     estimated scf accuracy    <       0.47435771 Ry

[...]

     total energy              =   -1147.96203711 Ry
     Harris-Foulkes estimate   =   -1147.96203712 Ry
     estimated scf accuracy    <          6.9E-09 Ry

     iteration # 14     ecut=    66.00 Ry     beta= 0.70
     Davidson diagonalization with overlap
     ethr =  7.13E-12,  avg # of iterations =  2.0

     End of self-consistent calculation

          k = 0.0000 0.0000 0.0000 ( 20977 PWs)   bands (ev):

   -70.9366 -70.9028 -35.2437 -35.2422 -35.1682 -35.0680 -35.0607 -34.8520
   -33.7258 -33.7209 -33.7086 -33.7061 -33.6941 -33.6877 -33.6743 -33.6673
   -33.6663 -33.6547 -33.5051 -33.5044 -33.4904 -33.4890 -33.4397 -33.4308
   -33.3982 -33.3949 -33.3944 -33.3856  -9.8235  -8.7095  -7.8695  -7.6375
    -2.6967  -2.3167  -1.4935  -0.8393   0.4072   0.7654   0.8884   1.1942
     1.6863   1.8789   2.3306   2.7193   2.9833   3.3824   4.3317   4.5580
     4.9383   5.3632   5.8011   6.5932   6.7656   6.7881   7.0024

     occupation numbers
     1.0000   1.0000   1.0000   1.0000   1.0000   1.0000   1.0000   1.0000
     1.0000   1.0000   1.0000   1.0000   1.0000   1.0000   1.0000   1.0000
     1.0000   1.0000   1.0000   1.0000   1.0000   1.0000   1.0000   1.0000
     1.0000   1.0000   1.0000   1.0000   1.0000   1.0000   1.0000   1.0000
     1.0000   1.0000   1.0000   1.0000   1.0000   1.0000   1.0000   1.0000
     1.0000   1.0000   1.0000   1.0000   0.9998   0.2571   0.0000   0.0000
     0.0000   0.0000   0.0000   0.0000   0.0000   0.0000   0.0000

[...]

          k = 0.3750-0.0690 0.0000 ( 20889 PWs)   bands (ev):

[...]

          k =-0.5000 0.0000 0.0000 ( 20854 PWs)   bands (ev):

[...]

          k =-0.5000-0.2759 0.0000 ( 20900 PWs)   bands (ev):

   -70.9178 -70.9177 -35.3193 -35.3193 -35.1433 -35.1432 -34.9285 -34.9283
   -33.7123 -33.7121 -33.7050 -33.7048 -33.6902 -33.6901 -33.6630 -33.6630
   -33.6607 -33.6607 -33.4909 -33.4904 -33.4842 -33.4837 -33.4405 -33.4400
   -33.3963 -33.3959 -33.3881 -33.3876  -7.7669  -7.7654  -7.2836  -7.2826
    -2.8233  -2.8228  -1.5032  -1.5027  -0.2533  -0.2523   0.8471   0.8495
     0.8755   0.8772   1.5068   1.5080   2.3411   2.3432   4.7255   4.7258
     5.2791   5.2793   5.6924   5.6934   6.9894   6.9911   7.1670

     occupation numbers
     1.0000   1.0000   1.0000   1.0000   1.0000   1.0000   1.0000   1.0000
     1.0000   1.0000   1.0000   1.0000   1.0000   1.0000   1.0000   1.0000
     1.0000   1.0000   1.0000   1.0000   1.0000   1.0000   1.0000   1.0000
     1.0000   1.0000   1.0000   1.0000   1.0000   1.0000   1.0000   1.0000
     1.0000   1.0000   1.0000   1.0000   1.0000   1.0000   1.0000   1.0000
     1.0000   1.0000   1.0000   1.0000   1.0000   1.0000   0.0000   0.0000
     0.0000   0.0000   0.0000   0.0000   0.0000   0.0000   0.0000

     the Fermi energy is     3.3197 ev

!    total energy              =   -1147.96203711 Ry
     Harris-Foulkes estimate   =   -1147.96203711 Ry
     estimated scf accuracy    <          2.1E-10 Ry

     The total energy is the sum of the following terms:

     one-electron contribution =   -3091.88091432 Ry
     hartree contribution      =    1551.72453796 Ry
     xc contribution           =    -266.83309628 Ry
     ewald contribution        =     659.02800263 Ry
     smearing contrib. (-TS)   =      -0.00056709 Ry

     convergence has been achieved in  14 iterations

     Writing output data file wte2.save\

     General routines

     Parallel routines

   This run was terminated on:  14: 3: 3  13Aug2024

   JOB DONE.